benchmarks_CP/INST_36x36/30/inst36x36_30_48.dzn
S=6;
start=[|
-1,	-1,	6,	-1,	-1,	27,	-1,	-1,	-1,	-1,	-1,	-1,	-1,	-1,	-1,	-1,	15,	-1,	-1,	17,	-1,	-1,	-1,	30,	-1,	16,	-1,	-1,	-1,	12,	34,	23,	-1,	24,	-1,	-1|
17,	-1,	31,	15,	29,	-1,	-1,	34,	-1,	-1,	-1,	-1,	5,	-1,	-1,	-1,	-1,	-1,	-1,	-1,	22,	-1,	-1,	-1,	-1,	-1,	-1,	35,	-1,	-1,	11,	-1,	-1,	-1,	13,	-1|
23,	-1,	32,	-1,	14,	-1,	5,	29,	-1,	-1,	1,	18,	-1,	-1,	-1,	-1,	27,	-1,	-1,	26,	24,	31,	-1,	-1,	4,	3,	-1,	-1,	33,	-1,	30,	-1,	-1,	17,	-1,	-1|
-1,	13,	-1,	-1,	-1,	28,	-1,	22,	-1,	15,	-1,	3,	-1,	-1,	24,	-1,	8,	-1,	-1,	1,	29,	9,	-1,	-1,	-1,	34,	-1,	-1,	-1,	-1,	-1,	-1,	-1,	-1,	-1,	4|
36,	34,	-1,	19,	-1,	-1,	-1,	-1,	23,	-1,	-1,	24,	-1,	21,	-1,	-1,	-1,	-1,	15,	-1,	-1,	-1,	-1,	-1,	-1,	-1,	-1,	-1,	30,	5,	22,	7,	-1,	-1,	10,	3|
-1,	-1,	-1,	-1,	-1,	-1,	-1,	19,	-1,	-1,	-1,	-1,	12,	-1,	-1,	13,	29,	30,	35,	-1,	-1,	-1,	25,	33,	14,	23,	21,	-1,	-1,	-1,	-1,	-1,	8,	-1,	-1,	-1|
-1,	-1,	-1,	4,	-1,	18,	-1,	-1,	-1,	-1,	-1,	-1,	-1,	-1,	-1,	-1,	-1,	-1,	32,	-1,	-1,	-1,	29,	-1,	-1,	-1,	-1,	-1,	-1,	-1,	-1,	-1,	22,	-1,	9,	-1|
-1,	10,	28,	-1,	-1,	-1,	-1,	-1,	-1,	-1,	7,	13,	-1,	-1,	-1,	-1,	3,	-1,	25,	-1,	2,	-1,	-1,	-1,	-1,	-1,	26,	1,	-1,	-1,	19,	33,	21,	-1,	5,	-1|
-1,	-1,	36,	-1,	-1,	-1,	-1,	18,	-1,	-1,	4,	-1,	-1,	30,	-1,	15,	-1,	-1,	-1,	-1,	-1,	33,	11,	1,	-1,	-1,	-1,	5,	10,	-1,	-1,	-1,	-1,	-1,	-1,	7|
-1,	-1,	24,	-1,	-1,	-1,	-1,	-1,	-1,	-1,	36,	-1,	-1,	-1,	-1,	-1,	-1,	-1,	-1,	-1,	-1,	-1,	-1,	5,	-1,	-1,	-1,	21,	-1,	-1,	8,	-1,	-1,	-1,	30,	25|
-1,	-1,	19,	8,	-1,	-1,	-1,	-1,	24,	-1,	-1,	-1,	-1,	-1,	-1,	16,	23,	-1,	-1,	-1,	7,	-1,	-1,	-1,	-1,	-1,	-1,	-1,	-1,	-1,	-1,	14,	20,	-1,	-1,	-1|
-1,	-1,	-1,	11,	25,	-1,	17,	-1,	-1,	-1,	-1,	-1,	-1,	-1,	29,	27,	-1,	-1,	-1,	-1,	30,	-1,	-1,	-1,	-1,	15,	-1,	-1,	-1,	-1,	18,	-1,	-1,	-1,	-1,	-1|
14,	-1,	-1,	7,	20,	-1,	-1,	-1,	-1,	34,	-1,	10,	-1,	-1,	-1,	32,	35,	-1,	33,	-1,	-1,	-1,	-1,	-1,	-1,	6,	-1,	-1,	-1,	30,	-1,	18,	-1,	-1,	-1,	-1|
-1,	-1,	-1,	6,	-1,	-1,	-1,	-1,	7,	-1,	15,	11,	-1,	26,	-1,	-1,	31,	-1,	-1,	2,	-1,	-1,	-1,	-1,	-1,	-1,	-1,	12,	32,	-1,	24,	-1,	34,	-1,	-1,	14|
-1,	-1,	-1,	-1,	-1,	-1,	-1,	2,	-1,	-1,	-1,	20,	-1,	-1,	-1,	-1,	-1,	13,	-1,	-1,	-1,	-1,	-1,	-1,	-1,	-1,	-1,	24,	34,	-1,	27,	-1,	29,	-1,	-1,	-1|
-1,	-1,	-1,	30,	-1,	16,	29,	-1,	-1,	-1,	-1,	14,	-1,	-1,	-1,	-1,	-1,	-1,	-1,	-1,	-1,	-1,	1,	9,	21,	-1,	-1,	-1,	-1,	-1,	-1,	-1,	-1,	-1,	-1,	13|
-1,	-1,	-1,	-1,	-1,	-1,	-1,	36,	-1,	13,	-1,	-1,	-1,	11,	-1,	-1,	12,	25,	-1,	6,	-1,	-1,	16,	-1,	3,	-1,	-1,	2,	-1,	-1,	-1,	20,	-1,	-1,	-1,	32|
-1,	-1,	-1,	-1,	-1,	11,	-1,	-1,	-1,	-1,	-1,	-1,	30,	-1,	27,	-1,	-1,	-1,	26,	-1,	15,	-1,	-1,	-1,	5,	-1,	-1,	-1,	-1,	-1,	-1,	-1,	-1,	6,	-1,	-1|
-1,	-1,	16,	26,	-1,	-1,	-1,	28,	-1,	24,	-1,	22,	-1,	-1,	-1,	-1,	-1,	35,	-1,	-1,	-1,	-1,	-1,	-1,	34,	-1,	-1,	-1,	-1,	36,	-1,	-1,	-1,	-1,	-1,	17|
-1,	-1,	2,	-1,	21,	-1,	-1,	-1,	17,	-1,	-1,	-1,	-1,	-1,	-1,	18,	26,	-1,	-1,	-1,	36,	10,	32,	-1,	27,	-1,	-1,	-1,	35,	29,	33,	-1,	12,	-1,	19,	-1|
-1,	-1,	-1,	33,	-1,	-1,	-1,	-1,	29,	-1,	26,	-1,	-1,	-1,	12,	17,	-1,	-1,	6,	5,	-1,	-1,	-1,	-1,	30,	-1,	-1,	10,	-1,	-1,	-1,	22,	16,	34,	36,	8|
10,	-1,	9,	18,	-1,	-1,	-1,	-1,	-1,	-1,	-1,	-1,	36,	-1,	-1,	23,	-1,	28,	-1,	-1,	-1,	-1,	2,	31,	-1,	-1,	-1,	-1,	-1,	6,	20,	-1,	-1,	-1,	-1,	26|
-1,	14,	-1,	35,	-1,	-1,	-1,	23,	-1,	36,	-1,	-1,	10,	-1,	22,	29,	-1,	31,	-1,	-1,	-1,	-1,	-1,	20,	-1,	12,	-1,	-1,	19,	-1,	-1,	-1,	-1,	1,	24,	-1|
-1,	12,	13,	-1,	-1,	30,	-1,	-1,	5,	-1,	-1,	-1,	-1,	-1,	-1,	24,	25,	-1,	-1,	15,	-1,	28,	-1,	-1,	9,	-1,	-1,	-1,	3,	-1,	-1,	29,	-1,	23,	35,	-1|
6,	-1,	-1,	-1,	-1,	-1,	-1,	-1,	4,	-1,	-1,	31,	27,	-1,	-1,	-1,	-1,	-1,	9,	3,	-1,	-1,	-1,	22,	-1,	-1,	-1,	-1,	2,	17,	-1,	5,	-1,	16,	-1,	-1|
7,	-1,	-1,	-1,	-1,	-1,	-1,	-1,	6,	-1,	-1,	-1,	-1,	-1,	-1,	21,	-1,	-1,	11,	-1,	-1,	-1,	26,	-1,	-1,	-1,	16,	-1,	-1,	-1,	-1,	-1,	-1,	-1,	-1,	-1|
3,	-1,	34,	-1,	35,	-1,	-1,	-1,	18,	-1,	-1,	-1,	28,	-1,	15,	-1,	-1,	-1,	-1,	-1,	-1,	16,	-1,	-1,	-1,	21,	-1,	-1,	-1,	24,	7,	-1,	19,	32,	-1,	-1|
-1,	22,	-1,	-1,	-1,	17,	-1,	24,	-1,	8,	-1,	5,	-1,	29,	-1,	19,	-1,	-1,	-1,	33,	-1,	35,	-1,	-1,	-1,	36,	-1,	-1,	18,	28,	3,	-1,	4,	11,	34,	-1|
9,	21,	-1,	-1,	-1,	-1,	15,	7,	-1,	-1,	-1,	-1,	-1,	-1,	-1,	-1,	22,	-1,	-1,	-1,	-1,	-1,	27,	-1,	8,	-1,	-1,	-1,	-1,	-1,	31,	10,	-1,	20,	-1,	35|
33,	-1,	4,	-1,	26,	-1,	-1,	9,	-1,	3,	-1,	-1,	-1,	23,	-1,	-1,	-1,	-1,	-1,	-1,	-1,	8,	6,	-1,	-1,	31,	11,	-1,	-1,	27,	-1,	-1,	2,	30,	-1,	12|
-1,	6,	-1,	14,	-1,	2,	1,	-1,	19,	-1,	-1,	4,	-1,	-1,	-1,	-1,	-1,	-1,	36,	-1,	9,	-1,	-1,	26,	-1,	-1,	13,	-1,	-1,	-1,	-1,	-1,	-1,	-1,	-1,	24|
-1,	-1,	-1,	-1,	-1,	-1,	-1,	-1,	-1,	-1,	-1,	-1,	-1,	-1,	-1,	30,	-1,	33,	-1,	7,	4,	-1,	22,	13,	-1,	26,	14,	9,	6,	23,	10,	8,	-1,	-1,	15,	-1|
-1,	-1,	-1,	-1,	-1,	-1,	26,	15,	36,	-1,	-1,	-1,	-1,	-1,	-1,	-1,	6,	-1,	-1,	-1,	-1,	-1,	10,	-1,	-1,	-1,	-1,	-1,	-1,	-1,	-1,	25,	-1,	-1,	-1,	-1|
-1,	-1,	18,	-1,	-1,	-1,	14,	6,	9,	-1,	-1,	-1,	-1,	-1,	-1,	-1,	-1,	-1,	21,	-1,	-1,	-1,	-1,	-1,	11,	-1,	-1,	-1,	-1,	2,	-1,	31,	-1,	3,	-1,	-1|
-1,	-1,	17,	20,	-1,	-1,	-1,	-1,	-1,	-1,	-1,	-1,	-1,	-1,	7,	5,	-1,	-1,	14,	-1,	33,	-1,	-1,	-1,	28,	-1,	-1,	32,	-1,	-1,	-1,	-1,	13,	4,	-1,	-1|
-1,	-1,	-1,	1,	19,	4,	-1,	-1,	-1,	-1,	-1,	-1,	-1,	17,	-1,	26,	-1,	-1,	-1,	29,	-1,	-1,	-1,	12,	31,	-1,	-1,	22,	-1,	-1,	36,	-1,	9,	-1,	18,	-1|];
